
Gurobi 11.0.3 (linux64) logging started Mon Aug 25 15:07:39 2025

Set parameter LogFile to value "/home/yihong/Coding/OR_SUC/SUC_epstheta_results_bigM100000_thread4/case24_ieee_rts_theta0.1_epsilon0.1_gurobi_seed150000_num_gen100_N_WDR50_load_scaling_factor1_proposed_eps_T12quadra_cost_bc1.01.txt"
Set parameter TimeLimit to value 3600
Gurobi Optimizer version 11.0.3 build v11.0.3rc0 (linux64 - "Ubuntu 20.04.6 LTS")

CPU model: AMD EPYC 7532 32-Core Processor, instruction set [SSE2|AVX|AVX2]
Thread count: 64 physical cores, 128 logical processors, using up to 4 threads

Academic license 2399124 - for non-commercial use only - registered to yi___@ed.ac.uk
Optimize a model with 28480 rows, 14931 columns and 656950 nonzeros
Model fingerprint: 0x81978f0d
Model has 1200 quadratic constraints
Variable types: 13731 continuous, 1200 integer (1200 binary)
Coefficient statistics:
  Matrix range     [3e-04, 2e+03]
  QMatrix range    [2e-03, 8e-03]
  QLMatrix range   [1e-01, 6e+01]
  Objective range  [1e+00, 1e+00]
  Bounds range     [1e+00, 1e+00]
  RHS range        [1e+00, 9e+03]
Presolve removed 23538 rows and 6516 columns
Presolve time: 0.17s
Presolved: 4942 rows, 8415 columns, 29005 nonzeros
Presolved model has 1200 quadratic constraint(s)
Variable types: 7215 continuous, 1200 integer (1200 binary)

Root relaxation: objective 1.633509e+04, 3872 iterations, 0.09 seconds (0.12 work units)

    Nodes    |    Current Node    |     Objective Bounds      |     Work
 Expl Unexpl |  Obj  Depth IntInf | Incumbent    BestBd   Gap | It/Node Time

     0     0 16335.0869    0   12          - 16335.0869      -     -    0s
     0     0 57636.6409    0  545          - 57636.6409      -     -    0s
     0     0 57638.0770    0  545          - 57638.0770      -     -    0s
     0     0 218398.755    0  414          - 218398.755      -     -    0s
     0     0 221175.174    0  280          - 221175.174      -     -    0s
     0     0 221358.584    0  195          - 221358.584      -     -    1s
     0     0 221360.870    0  195          - 221360.870      -     -    1s
     0     0 221360.870    0  195          - 221360.870      -     -    1s
     0     0 221361.118    0  195          - 221361.118      -     -    1s
     0     2 221361.118    0  195          - 221361.118      -     -    1s
H  248   259                    221539.65011 221383.253  0.07%  25.2    2s
*  248   259              78    221539.65011 221383.253  0.07%  25.4    2s

Cutting planes:
  Gomory: 11
  Implied bound: 322
  MIR: 49
  Flow cover: 98

Explored 272 nodes (18642 simplex iterations) in 3.08 seconds (2.97 work units)
Thread count was 4 (of 128 available processors)

Solution count 2: 221540 221540 

Optimal solution found (tolerance 1.00e-03)
Warning: max constraint violation (3.1080e-07) exceeds tolerance
Best objective 2.215396501059e+05, best bound 2.213832527997e+05, gap 0.0706%

Gurobi 11.0.3 (linux64) logging started Mon Aug 25 15:07:43 2025

Set parameter LogFile to value "/home/yihong/Coding/OR_SUC/SUC_epstheta_results_bigM100000_thread4/case24_ieee_rts_theta0.1_epsilon0.1_gurobi_seed150000_num_gen100_N_WDR50_load_scaling_factor1_proposed_eps_T12quadra_cost_bc1.01.txt"
Set parameter TimeLimit to value 3600
Gurobi Optimizer version 11.0.3 build v11.0.3rc0 (linux64 - "Ubuntu 20.04.6 LTS")

CPU model: AMD EPYC 7532 32-Core Processor, instruction set [SSE2|AVX|AVX2]
Thread count: 64 physical cores, 128 logical processors, using up to 4 threads

Academic license 2399124 - for non-commercial use only - registered to yi___@ed.ac.uk
Optimize a model with 28480 rows, 14932 columns and 660619 nonzeros
Model fingerprint: 0x24d11c1b
Model has 1201 quadratic constraints
Variable types: 13732 continuous, 1200 integer (1200 binary)
Coefficient statistics:
  Matrix range     [3e-04, 2e+03]
  QMatrix range    [2e-03, 5e+01]
  QLMatrix range   [1e-01, 6e+01]
  Objective range  [1e+00, 1e+00]
  Bounds range     [1e-01, 1e+00]
  RHS range        [1e+00, 2e+05]
  QRHS range       [5e+00, 5e+00]
Presolve removed 21277 rows and 5398 columns
Presolve time: 0.21s
Presolved: 8405 rows, 10734 columns, 46560 nonzeros
Presolved model has 1200 quadratic constraint(s)
Presolved model has 1 bilinear constraint(s)

Solving non-convex MIQCP

Variable types: 9532 continuous, 1202 integer (1202 binary)

Root relaxation: objective 1.418804e-03, 12369 iterations, 0.85 seconds (1.12 work units)

    Nodes    |    Current Node    |     Objective Bounds      |     Work
 Expl Unexpl |  Obj  Depth IntInf | Incumbent    BestBd   Gap | It/Node Time

     0     0    0.00142    0   14          -    0.00142      -     -    1s
     0     0    0.00142    0   14          -    0.00142      -     -    1s
     0     0    0.00196    0   14          -    0.00196      -     -    2s
H    0     0                       0.0209635    0.00196  90.6%     -    2s
     0     0    0.01893    0   14    0.02096    0.01893  9.70%     -    2s
     0     0    0.01894    0   14    0.02096    0.01894  9.67%     -    2s
     0     0    0.01894    0   14    0.02096    0.01894  9.67%     -    2s
     0     0    0.01894    0   14    0.02096    0.01894  9.65%     -    2s
     0     0    0.01894    0   14    0.02096    0.01894  9.65%     -    3s
     0     0    0.01894    0   14    0.02096    0.01894  9.65%     -    3s
     0     0    0.01894    0   14    0.02096    0.01894  9.64%     -    3s
     0     0    0.01894    0   14    0.02096    0.01894  9.64%     -    3s
     0     0    0.01895    0   14    0.02096    0.01895  9.62%     -    3s
     0     2    0.01895    0   14    0.02096    0.01895  9.62%     -    3s
H   28    33                       0.0209056    0.01899  9.15%  36.7    5s
   271   237    0.01940   12   14    0.02091    0.01905  8.86%  22.0   10s
H  327   234                       0.0201807    0.01905  5.58%  21.7   10s
*  327   234              80       0.0201807    0.01905  5.58%  21.8   10s
H  477   136                       0.0195141    0.01905  2.36%  18.6   12s
   480   124    0.01950   49   13    0.01951    0.01914  1.90%  18.5   17s
   493   133    0.01948   24   13    0.01951    0.01916  1.83%  18.0   20s
   496   135    0.01927   11   13    0.01951    0.01916  1.83%  17.9   26s
   712   173    0.01939   40   48    0.01951    0.01920  1.60%  44.7   30s
* 1269   361             156       0.0195028    0.01929  1.07%  32.2   32s
  1695   642    0.01945   32   19    0.01950    0.01933  0.88%  26.5   35s
H 1975   326                       0.0194445    0.01933  0.58%  23.0   36s
  3007  1003    0.01944  246    8    0.01944    0.01941  0.20%  15.9   40s
* 3326   926             335       0.0194366    0.01941  0.16%  14.4   40s
  5526  3211    0.01944 1351    1    0.01944    0.01941  0.16%   9.0   45s
* 7551   954             204       0.0194309    0.01941  0.13%   6.6   46s

Cutting planes:
  Lift-and-project: 3
  Implied bound: 15
  MIR: 13
  Mixing: 1
  Flow cover: 15
  RLT: 12

Explored 7824 nodes (64408 simplex iterations) in 47.60 seconds (49.79 work units)
Thread count was 4 (of 128 available processors)

Solution count 8: 0.0194309 0.0194366 0.0194445 ... 0.0209635

Optimal solution found (tolerance 1.00e-03)
Best objective 1.943090707922e-02, best bound 1.942909321367e-02, gap 0.0093%
